n_res = 4;
rc = [ 14, 13, 6, 15 ];
n_tasks = 30;
d = [ 9, 3, 8, 3, 5, 5, 5, 7, 3, 8, 9, 9, 6, 10, 3, 1, 3, 8, 9, 9, 3, 8, 2, 10, 1, 1, 3, 5, 6, 4 ];
rr = [| 0, 0, 6, 0, 0, 0, 0, 0, 0, 0, 3, 0, 8, 0, 0, 0, 0, 0, 0, 0, 0, 0, 0, 0, 4, 3, 0, 0, 9, 9
      | 0, 1, 0, 0, 6, 0, 0, 10, 2, 0, 0, 0, 0, 0, 0, 5, 0, 4, 0, 0, 10, 0, 10, 0, 0, 0, 0, 2, 0, 0
      | 0, 0, 0, 0, 0, 0, 0, 0, 0, 0, 0, 0, 0, 0, 0, 0, 0, 0, 0, 6, 0, 0, 0, 0, 0, 0, 2, 0, 0, 0
      | 6, 0, 0, 1, 0, 4, 9, 0, 0, 10, 0, 4, 0, 6, 3, 0, 6, 0, 2, 0, 0, 4, 0, 6, 0, 0, 0, 0, 0, 0 |];
suc = [ { 2 }, 
        { 3 }, 
        { 4 }, 
        { 5 }, 
        { 6 }, 
        { 7 }, 
        { 8 }, 
        { 9 }, 
        { 10 }, 
        { 11 }, 
        { 12 }, 
        { 13 }, 
        { 14 }, 
        { 15 }, 
        { 16 }, 
        { 17 }, 
        { 18 }, 
        { 19 }, 
        { 20 }, 
        { 21 }, 
        { 22 }, 
        { 23 }, 
        { 24 }, 
        { 25 }, 
        { 26 }, 
        { 27 }, 
        { 28 }, 
        { 29 }, 
        { 30 }, 
        {  }]; 
